;  time  = {}
;  terms = 12
;  score = -1
;  stdout= {}
(set-logic QF_FP)
(declare-const x0 (_ FloatingPoint 8 24))
(declare-const x1 (_ FloatingPoint 8 24))
(declare-const x2 (_ FloatingPoint 8 24))
(declare-const x3 (_ FloatingPoint 8 24))
(assert (not (fp.isNaN x0)))
(assert (not (fp.isInfinite x0)))
(assert (not (fp.isZero x0)))
(assert (not (fp.isNaN x1)))
(assert (not (fp.isInfinite x1)))
(assert (not (fp.isZero x1)))
(assert (not (fp.isNaN x2)))
(assert (not (fp.isInfinite x2)))
(assert (not (fp.isZero x2)))
(assert (not (fp.isNaN x3)))
(assert (not (fp.isInfinite x3)))
(assert (not (fp.isZero x3)))
(assert (fp.isSubnormal (fp.min (fp.sqrt RNE (fp.div RNE x2 x0)) (fp.add RNE (fp.sqrt RNE x3) (fp.sub RNE x1 x0)))))(check-sat)